p cnf 7230 17
-5016 -6093 6204 0
6093 -6204 0
-5415 -6167 -6209 0
5975 6099 -6207 0
5973 6097 -6205 0
5415 -6210 0
-5975 -6208 0
-5973 -6206 0
6209 6210 0
6207 6208 0
6205 6206 0
6167 -6210 0
-6099 -6208 0
-6097 -6206 0
6103 -6212 0
6203 6204 0
-6203 -6204 0
